-1 -1 -1 -1 -1 -1 -1 -1 -1 -1 -1 -1 -1 -1 -1 -1 -1 -1 -1 -1 -1 -1 -1 -1 -1 -1 -1 -1 -1 -1 -1 -1 -1 -1 -1 -1 -1 -1 -1 -1 -1 -1 -1 -1 -1 -1 -1 -1 -1 -1 -1 -1 -1 -1 -1 -1 -1 -1 -1 -1 -1 -1 -1 -1 -1 -1 -1 -1 -1 -1 -1 -1 -1 -1 -1 -1 -1 -1 -1 -1 -1 -1 -1 -1 -1 -1 -1 -1 -1 -1 -1 -1 -1 -1 0
-1 -1 -1 -1 -1 -1 -1 -1 -1 -1 -1 -1 -1 -1 -1 -1 -1 -1 -1 -1 -1 -1 -1 -1 -1 -1 -1 -1 -1 -1 -1 -1 -1 -1 -1 -1 -1 -1 -1 -1 -1 -1 -1 -1 -1 -1 -1 -1 -1 -1 -1 -1 -1 -1 -1 -1 -1 -1 -1 -1 -1 -1 -1 -1 -1 -1 -1 -1 -1 -1 -1 -1 -1 -1 -1 -1 -1 -1 -1 -1 -1 -1 -1 -1 -1 -1 -1 -1 -1 -1 -1 -1 -1 1 0
-1 -1 -1 -1 -1 -1 -1 -1 -1 -1 -1 -1 -1 -1 -1 -1 -1 -1 -1 -1 -1 -1 -1 -1 -1 -1 -1 -1 -1 -1 -1 -1 -1 -1 -1 -1 -1 -1 -1 -1 -1 -1 -1 -1 -1 0 -1 -1 -1 -1 -1 -1 -1 -1 -1 -1 -1 -1 -1 -1 -1 -1 -1 -1 -1 -1 -1 -1 -1 -1 -1 -1 -1 -1 -1 -1 -1 -1 -1 -1 -1 -1 -1 -1 -1 -1 -1 -1 -1 -1 -1 -1 -1 1 0
-1 -1 -1 -1 -1 -1 -1 -1 -1 -1 -1 -1 -1 -1 -1 -1 -1 -1 -1 -1 -1 -1 -1 -1 -1 -1 -1 -1 -1 -1 -1 -1 -1 -1 -1 -1 -1 -1 -1 -1 -1 -1 -1 -1 -1 0 1 -1 -1 -1 -1 -1 -1 -1 -1 -1 -1 -1 -1 -1 -1 -1 -1 -1 -1 -1 -1 -1 -1 -1 -1 -1 -1 -1 -1 -1 -1 -1 -1 -1 -1 -1 -1 -1 -1 -1 -1 -1 -1 -1 -1 -1 -1 1 0
-1 -1 -1 -1 -1 -1 -1 -1 -1 -1 -1 -1 -1 -1 -1 -1 -1 -1 -1 -1 -1 -1 -1 -1 -1 -1 -1 -1 -1 -1 -1 -1 -1 -1 -1 -1 -1 -1 -1 -1 -1 -1 -1 -1 -1 0 1 -1 -1 -1 -1 -1 -1 -1 -1 -1 -1 -1 -1 -1 -1 -1 -1 -1 -1 -1 -1 -1 -1 -1 -1 -1 -1 -1 -1 -1 -1 -1 -1 -1 -1 -1 -1 -1 -1 -1 -1 -1 -1 -1 -1 -1 2 1 0
-1 -1 -1 -1 -1 -1 -1 -1 -1 -1 -1 -1 -1 -1 -1 -1 -1 -1 -1 -1 -1 1 -1 -1 -1 -1 -1 -1 -1 -1 -1 -1 -1 -1 -1 -1 -1 -1 -1 -1 -1 -1 -1 -1 -1 0 1 -1 -1 -1 -1 -1 -1 -1 -1 -1 -1 -1 -1 -1 -1 -1 -1 -1 -1 -1 -1 -1 -1 -1 -1 -1 -1 -1 -1 -1 -1 -1 -1 -1 -1 -1 -1 -1 -1 -1 -1 -1 -1 -1 -1 -1 2 1 0
-1 -1 -1 -1 -1 -1 -1 -1 -1 -1 -1 -1 -1 -1 -1 -1 -1 -1 -1 -1 -1 1 -1 -1 -1 -1 -1 -1 -1 -1 -1 -1 -1 -1 -1 -1 -1 -1 -1 -1 -1 -1 -1 -1 -1 0 1 -1 -1 -1 -1 -1 -1 -1 -1 -1 -1 -1 -1 -1 -1 -1 -1 -1 -1 -1 -1 -1 -1 2 -1 -1 -1 -1 -1 -1 -1 -1 -1 -1 -1 -1 -1 -1 -1 -1 -1 -1 -1 -1 -1 -1 2 1 0
-1 -1 -1 -1 -1 -1 -1 -1 -1 -1 -1 1 -1 -1 -1 -1 -1 -1 -1 -1 -1 1 -1 -1 -1 -1 -1 -1 -1 -1 -1 -1 -1 -1 -1 -1 -1 -1 -1 -1 -1 -1 -1 -1 -1 0 1 -1 -1 -1 -1 -1 -1 -1 -1 -1 -1 -1 -1 -1 -1 -1 -1 -1 -1 -1 -1 -1 -1 2 -1 -1 -1 -1 -1 -1 -1 -1 -1 -1 -1 -1 -1 -1 -1 -1 -1 -1 -1 -1 -1 -1 2 1 0
-1 -1 -1 -1 -1 -1 -1 -1 -1 -1 -1 1 1 -1 -1 -1 -1 -1 -1 -1 -1 1 -1 -1 -1 -1 -1 -1 -1 -1 -1 -1 -1 -1 -1 -1 -1 -1 -1 -1 -1 -1 -1 -1 -1 0 1 -1 -1 -1 -1 -1 -1 -1 -1 -1 -1 -1 -1 -1 -1 -1 -1 -1 -1 -1 -1 -1 -1 2 -1 -1 -1 -1 -1 -1 -1 -1 -1 -1 -1 -1 -1 -1 -1 -1 -1 -1 -1 -1 -1 -1 2 1 0
-1 -1 -1 -1 -1 -1 -1 -1 -1 -1 -1 1 1 1 -1 -1 -1 -1 -1 -1 -1 1 -1 -1 -1 -1 -1 -1 -1 -1 -1 -1 -1 -1 -1 -1 -1 -1 -1 -1 -1 -1 -1 -1 -1 0 1 -1 -1 -1 -1 -1 -1 -1 -1 -1 -1 -1 -1 -1 -1 -1 -1 -1 -1 -1 -1 -1 -1 2 -1 -1 -1 -1 -1 -1 -1 -1 -1 -1 -1 -1 -1 -1 -1 -1 -1 -1 -1 -1 -1 -1 2 1 0
-1 -1 -1 -1 -1 -1 -1 -1 -1 -1 -1 1 1 1 1 -1 -1 -1 -1 -1 -1 1 -1 -1 -1 -1 -1 -1 -1 -1 -1 -1 -1 -1 -1 -1 -1 -1 -1 -1 -1 -1 -1 -1 -1 0 1 -1 -1 -1 -1 -1 -1 -1 -1 -1 -1 -1 -1 -1 -1 -1 -1 -1 -1 -1 -1 -1 -1 2 -1 -1 -1 -1 -1 -1 -1 -1 -1 -1 -1 -1 -1 -1 -1 -1 -1 -1 -1 -1 -1 -1 2 1 0
-1 -1 -1 -1 -1 -1 -1 -1 -1 -1 -1 1 1 1 1 1 -1 -1 -1 -1 -1 1 -1 -1 -1 -1 -1 -1 -1 -1 -1 -1 -1 -1 -1 -1 -1 -1 -1 -1 -1 -1 -1 -1 -1 0 1 -1 -1 -1 -1 -1 -1 -1 -1 -1 -1 -1 -1 -1 -1 -1 -1 -1 -1 -1 -1 -1 -1 2 -1 -1 -1 -1 -1 -1 -1 -1 -1 -1 -1 -1 -1 -1 -1 -1 -1 -1 -1 -1 -1 -1 2 1 0
-1 -1 -1 -1 -1 -1 -1 -1 -1 -1 -1 1 1 1 1 1 -1 -1 -1 -1 -1 1 -1 -1 -1 -1 -1 -1 -1 -1 -1 -1 -1 -1 -1 -1 -1 -1 -1 -1 -1 -1 -1 -1 -1 0 1 2 -1 -1 -1 -1 -1 -1 -1 -1 -1 -1 -1 -1 -1 -1 -1 -1 -1 -1 -1 -1 -1 2 -1 -1 -1 -1 -1 -1 -1 -1 -1 -1 -1 -1 -1 -1 -1 -1 -1 -1 -1 -1 -1 -1 2 1 0
-1 0 -1 -1 -1 -1 -1 -1 -1 -1 -1 1 1 1 1 1 -1 -1 -1 -1 -1 1 -1 -1 -1 -1 -1 -1 -1 -1 -1 -1 -1 -1 -1 -1 -1 -1 -1 -1 -1 -1 -1 -1 -1 0 1 2 -1 -1 -1 -1 -1 -1 -1 -1 -1 -1 -1 -1 -1 -1 -1 -1 -1 -1 -1 -1 -1 2 -1 -1 -1 -1 -1 -1 -1 -1 -1 -1 -1 -1 -1 -1 -1 -1 -1 -1 -1 -1 -1 -1 2 1 0
-1 0 -1 -1 -1 -1 -1 -1 -1 -1 -1 1 1 1 1 1 -1 -1 -1 -1 -1 1 -1 -1 -1 -1 -1 -1 -1 -1 -1 -1 -1 -1 3 -1 -1 -1 -1 -1 -1 -1 -1 -1 -1 0 1 2 -1 -1 -1 -1 -1 -1 -1 -1 -1 -1 -1 -1 -1 -1 -1 -1 -1 -1 -1 -1 -1 2 -1 -1 -1 -1 -1 -1 -1 -1 -1 -1 -1 -1 -1 -1 -1 -1 -1 -1 -1 -1 -1 -1 2 1 0
-1 0 -1 0 -1 -1 -1 -1 -1 -1 -1 1 1 1 1 1 -1 -1 -1 -1 -1 1 -1 -1 -1 -1 -1 -1 -1 -1 -1 -1 -1 -1 3 -1 -1 -1 -1 -1 -1 -1 -1 -1 -1 0 1 2 -1 -1 -1 -1 -1 -1 -1 -1 -1 -1 -1 -1 -1 -1 -1 -1 -1 -1 -1 -1 -1 2 -1 -1 -1 -1 -1 -1 -1 -1 -1 -1 -1 -1 -1 -1 -1 -1 -1 -1 -1 -1 -1 -1 2 1 0
-1 0 -1 0 -1 -1 0 -1 -1 -1 -1 1 1 1 1 1 -1 -1 -1 -1 -1 1 -1 -1 -1 -1 -1 -1 -1 -1 -1 -1 -1 -1 3 -1 -1 -1 -1 -1 -1 -1 -1 -1 -1 0 1 2 -1 -1 -1 -1 -1 -1 -1 -1 -1 -1 -1 -1 -1 -1 -1 -1 -1 -1 -1 -1 -1 2 -1 -1 -1 -1 -1 -1 -1 -1 -1 -1 -1 -1 -1 -1 -1 -1 -1 -1 -1 -1 -1 -1 2 1 0
-1 0 -1 0 -1 -1 0 -1 0 -1 -1 1 1 1 1 1 -1 -1 -1 -1 -1 1 -1 -1 -1 -1 -1 -1 -1 -1 -1 -1 -1 -1 3 -1 -1 -1 -1 -1 -1 -1 -1 -1 -1 0 1 2 -1 -1 -1 -1 -1 -1 -1 -1 -1 -1 -1 -1 -1 -1 -1 -1 -1 -1 -1 -1 -1 2 -1 -1 -1 -1 -1 -1 -1 -1 -1 -1 -1 -1 -1 -1 -1 -1 -1 -1 -1 -1 -1 -1 2 1 0
-1 0 -1 0 -1 -1 0 -1 0 -1 -1 1 1 1 1 1 -1 -1 -1 -1 -1 1 -1 -1 -1 -1 -1 -1 -1 -1 -1 -1 -1 -1 3 -1 -1 -1 -1 -1 -1 -1 -1 -1 -1 0 1 2 2 -1 -1 -1 -1 -1 -1 -1 -1 -1 -1 -1 -1 -1 -1 -1 -1 -1 -1 -1 -1 2 -1 -1 -1 -1 -1 -1 -1 -1 -1 -1 -1 -1 -1 -1 -1 -1 -1 -1 -1 -1 -1 -1 2 1 0
-1 0 3 0 -1 -1 0 -1 0 -1 -1 1 1 1 1 1 -1 -1 -1 -1 -1 1 -1 -1 -1 -1 -1 -1 -1 -1 -1 -1 -1 -1 3 -1 -1 -1 -1 -1 -1 -1 -1 -1 -1 0 1 2 2 -1 -1 -1 -1 -1 -1 -1 -1 -1 -1 -1 -1 -1 -1 -1 -1 -1 -1 -1 -1 2 -1 -1 -1 -1 -1 -1 -1 -1 -1 -1 -1 -1 -1 -1 -1 -1 -1 -1 -1 -1 -1 -1 2 1 0
-1 0 3 0 -1 -1 0 -1 0 -1 -1 1 1 1 1 1 -1 -1 -1 -1 -1 1 -1 -1 -1 -1 -1 -1 -1 -1 -1 -1 -1 -1 3 -1 -1 -1 4 -1 -1 -1 -1 -1 -1 0 1 2 2 -1 -1 -1 -1 -1 -1 -1 -1 -1 -1 -1 -1 -1 -1 -1 -1 -1 -1 -1 -1 2 -1 -1 -1 -1 -1 -1 -1 -1 -1 -1 -1 -1 -1 -1 -1 -1 -1 -1 -1 -1 -1 -1 2 1 0
-1 0 3 0 -1 -1 0 3 0 -1 -1 1 1 1 1 1 -1 -1 -1 -1 -1 1 -1 -1 -1 -1 -1 -1 -1 -1 -1 -1 -1 -1 3 -1 -1 -1 4 -1 -1 -1 -1 -1 -1 0 1 2 2 -1 -1 -1 -1 -1 -1 -1 -1 -1 -1 -1 -1 -1 -1 -1 -1 -1 -1 -1 -1 2 -1 -1 -1 -1 -1 -1 -1 -1 -1 -1 -1 -1 -1 -1 -1 -1 -1 -1 -1 -1 -1 -1 2 1 0
-1 0 3 0 -1 -1 0 3 0 -1 -1 1 1 1 1 1 -1 -1 -1 -1 -1 1 -1 -1 -1 -1 -1 -1 -1 -1 -1 -1 -1 -1 3 -1 -1 -1 4 -1 -1 -1 -1 -1 -1 0 1 2 2 -1 2 -1 -1 -1 -1 -1 -1 -1 -1 -1 -1 -1 -1 -1 -1 -1 -1 -1 -1 2 -1 -1 -1 -1 -1 -1 -1 -1 -1 -1 -1 -1 -1 -1 -1 -1 -1 -1 -1 -1 -1 -1 2 1 0
-1 0 3 0 4 -1 0 3 0 -1 -1 1 1 1 1 1 -1 -1 -1 -1 -1 1 -1 -1 -1 -1 -1 -1 -1 -1 -1 -1 -1 -1 3 -1 -1 -1 4 -1 -1 -1 -1 -1 -1 0 1 2 2 -1 2 -1 -1 -1 -1 -1 -1 -1 -1 -1 -1 -1 -1 -1 -1 -1 -1 -1 -1 2 -1 -1 -1 -1 -1 -1 -1 -1 -1 -1 -1 -1 -1 -1 -1 -1 -1 -1 -1 -1 -1 -1 2 1 0
-1 0 3 0 4 -1 0 3 0 4 -1 1 1 1 1 1 -1 -1 -1 -1 -1 1 -1 -1 -1 -1 -1 -1 -1 -1 -1 -1 -1 -1 3 -1 -1 -1 4 -1 -1 -1 -1 -1 -1 0 1 2 2 -1 2 -1 -1 -1 -1 -1 -1 -1 -1 -1 -1 -1 -1 -1 -1 -1 -1 -1 -1 2 -1 -1 -1 -1 -1 -1 -1 -1 -1 -1 -1 -1 -1 -1 -1 -1 -1 -1 -1 -1 -1 -1 2 1 0
-1 0 3 0 4 -1 0 3 0 4 -1 1 1 1 1 1 -1 -1 -1 -1 -1 1 -1 -1 -1 -1 -1 -1 -1 -1 -1 -1 -1 -1 3 -1 -1 -1 4 -1 -1 -1 -1 -1 5 0 1 2 2 -1 2 -1 -1 -1 -1 -1 -1 -1 -1 -1 -1 -1 -1 -1 -1 -1 -1 -1 -1 2 -1 -1 -1 -1 -1 -1 -1 -1 -1 -1 -1 -1 -1 -1 -1 -1 -1 -1 -1 -1 -1 -1 2 1 0
-1 0 3 0 4 -1 0 3 0 4 -1 1 1 1 1 1 -1 -1 -1 -1 -1 1 -1 -1 -1 -1 -1 -1 -1 -1 -1 -1 -1 -1 3 -1 -1 -1 4 -1 -1 -1 -1 -1 5 0 1 2 2 -1 2 -1 -1 -1 -1 2 -1 -1 -1 -1 -1 -1 -1 -1 -1 -1 -1 -1 -1 2 -1 -1 -1 -1 -1 -1 -1 -1 -1 -1 -1 -1 -1 -1 -1 -1 -1 -1 -1 -1 -1 -1 2 1 0
-1 0 3 0 4 -1 0 3 0 4 -1 1 1 1 1 1 -1 -1 -1 -1 -1 1 -1 -1 -1 -1 -1 -1 -1 -1 -1 -1 -1 5 3 -1 -1 -1 4 -1 -1 -1 -1 -1 5 0 1 2 2 -1 2 -1 -1 -1 -1 2 -1 -1 -1 -1 -1 -1 -1 -1 -1 -1 -1 -1 -1 2 -1 -1 -1 -1 -1 -1 -1 -1 -1 -1 -1 -1 -1 -1 -1 -1 -1 -1 -1 -1 -1 -1 2 1 0
-1 0 3 0 4 -1 0 3 0 4 1 1 1 1 1 1 -1 -1 -1 -1 -1 1 -1 -1 -1 -1 -1 -1 -1 -1 -1 -1 -1 5 3 -1 -1 -1 4 -1 -1 -1 -1 -1 5 0 1 2 2 -1 2 -1 -1 -1 -1 2 -1 -1 -1 -1 -1 -1 -1 -1 -1 -1 -1 -1 -1 2 -1 -1 -1 -1 -1 -1 -1 -1 -1 -1 -1 -1 -1 -1 -1 -1 -1 -1 -1 -1 -1 -1 2 1 0
-1 0 3 0 4 -1 0 3 0 4 1 1 1 1 1 1 -1 4 -1 -1 -1 1 -1 -1 -1 -1 -1 -1 -1 -1 -1 -1 -1 5 3 -1 -1 -1 4 -1 -1 -1 -1 -1 5 0 1 2 2 -1 2 -1 -1 -1 -1 2 -1 -1 -1 -1 -1 -1 -1 -1 -1 -1 -1 -1 -1 2 -1 -1 -1 -1 -1 -1 -1 -1 -1 -1 -1 -1 -1 -1 -1 -1 -1 -1 -1 -1 -1 -1 2 1 0
-1 0 3 0 4 -1 0 3 0 4 1 1 1 1 1 1 -1 4 -1 3 -1 1 -1 -1 -1 -1 -1 -1 -1 -1 -1 -1 -1 5 3 -1 -1 -1 4 -1 -1 -1 -1 -1 5 0 1 2 2 -1 2 -1 -1 -1 -1 2 -1 -1 -1 -1 -1 -1 -1 -1 -1 -1 -1 -1 -1 2 -1 -1 -1 -1 -1 -1 -1 -1 -1 -1 -1 -1 -1 -1 -1 -1 -1 -1 -1 -1 -1 -1 2 1 0
5 0 3 0 4 -1 0 3 0 4 1 1 1 1 1 1 -1 4 -1 3 -1 1 -1 -1 -1 -1 -1 -1 -1 -1 -1 -1 -1 5 3 -1 -1 -1 4 -1 -1 -1 -1 -1 5 0 1 2 2 -1 2 -1 -1 -1 -1 2 -1 -1 -1 -1 -1 -1 -1 -1 -1 -1 -1 -1 -1 2 -1 -1 -1 -1 -1 -1 -1 -1 -1 -1 -1 -1 -1 -1 -1 -1 -1 -1 -1 -1 -1 -1 2 1 0
5 0 3 0 4 -1 0 3 0 4 1 1 1 1 1 1 -1 4 3 3 -1 1 -1 -1 -1 -1 -1 -1 -1 -1 -1 -1 -1 5 3 -1 -1 -1 4 -1 -1 -1 -1 -1 5 0 1 2 2 -1 2 -1 -1 -1 -1 2 -1 -1 -1 -1 -1 -1 -1 -1 -1 -1 -1 -1 -1 2 -1 -1 -1 -1 -1 -1 -1 -1 -1 -1 -1 -1 -1 -1 -1 -1 -1 -1 -1 -1 -1 -1 2 1 0
5 0 3 0 4 -1 0 3 0 4 1 1 1 1 1 1 -1 4 3 3 4 1 -1 -1 -1 -1 -1 -1 -1 -1 -1 -1 -1 5 3 -1 -1 -1 4 -1 -1 -1 -1 -1 5 0 1 2 2 -1 2 -1 -1 -1 -1 2 -1 -1 -1 -1 -1 -1 -1 -1 -1 -1 -1 -1 -1 2 -1 -1 -1 -1 -1 -1 -1 -1 -1 -1 -1 -1 -1 -1 -1 -1 -1 -1 -1 -1 -1 -1 2 1 0
5 0 3 0 4 -1 0 3 0 4 1 1 1 1 1 1 -1 4 3 3 4 1 -1 5 -1 -1 -1 -1 -1 -1 -1 -1 -1 5 3 -1 -1 -1 4 -1 -1 -1 -1 -1 5 0 1 2 2 -1 2 -1 -1 -1 -1 2 -1 -1 -1 -1 -1 -1 -1 -1 -1 -1 -1 -1 -1 2 -1 -1 -1 -1 -1 -1 -1 -1 -1 -1 -1 -1 -1 -1 -1 -1 -1 -1 -1 -1 -1 -1 2 1 0
5 0 3 0 4 -1 0 3 0 4 1 1 1 1 1 1 -1 4 3 3 4 1 0 5 -1 -1 -1 -1 -1 -1 -1 -1 -1 5 3 -1 -1 -1 4 -1 -1 -1 -1 -1 5 0 1 2 2 -1 2 -1 -1 -1 -1 2 -1 -1 -1 -1 -1 -1 -1 -1 -1 -1 -1 -1 -1 2 -1 -1 -1 -1 -1 -1 -1 -1 -1 -1 -1 -1 -1 -1 -1 -1 -1 -1 -1 -1 -1 -1 2 1 0
5 0 3 0 4 -1 0 3 0 4 1 1 1 1 1 1 -1 4 3 3 4 1 0 5 -1 -1 -1 -1 -1 -1 -1 -1 -1 5 3 4 -1 -1 4 -1 -1 -1 -1 -1 5 0 1 2 2 -1 2 -1 -1 -1 -1 2 -1 -1 -1 -1 -1 -1 -1 -1 -1 -1 -1 -1 -1 2 -1 -1 -1 -1 -1 -1 -1 -1 -1 -1 -1 -1 -1 -1 -1 -1 -1 -1 -1 -1 -1 -1 2 1 0
5 0 3 0 4 3 0 3 0 4 1 1 1 1 1 1 -1 4 3 3 4 1 0 5 -1 -1 -1 -1 -1 -1 -1 -1 -1 5 3 4 -1 -1 4 -1 -1 -1 -1 -1 5 0 1 2 2 -1 2 -1 -1 -1 -1 2 -1 -1 -1 -1 -1 -1 -1 -1 -1 -1 -1 -1 -1 2 -1 -1 -1 -1 -1 -1 -1 -1 -1 -1 -1 -1 -1 -1 -1 -1 -1 -1 -1 -1 -1 -1 2 1 0
5 0 3 0 4 3 0 3 0 4 1 1 1 1 1 1 -1 4 3 3 4 1 0 5 -1 -1 -1 -1 -1 -1 -1 -1 -1 5 3 4 -1 6 4 -1 -1 -1 -1 -1 5 0 1 2 2 -1 2 -1 -1 -1 -1 2 -1 -1 -1 -1 -1 -1 -1 -1 -1 -1 -1 -1 -1 2 -1 -1 -1 -1 -1 -1 -1 -1 -1 -1 -1 -1 -1 -1 -1 -1 -1 -1 -1 -1 -1 -1 2 1 0
5 0 3 0 4 3 0 3 0 4 1 1 1 1 1 1 -1 4 3 3 4 1 0 5 -1 -1 0 -1 -1 -1 -1 -1 -1 5 3 4 -1 6 4 -1 -1 -1 -1 -1 5 0 1 2 2 -1 2 -1 -1 -1 -1 2 -1 -1 -1 -1 -1 -1 -1 -1 -1 -1 -1 -1 -1 2 -1 -1 -1 -1 -1 -1 -1 -1 -1 -1 -1 -1 -1 -1 -1 -1 -1 -1 -1 -1 -1 -1 2 1 0
5 0 3 0 4 3 0 3 0 4 1 1 1 1 1 1 -1 4 3 3 4 1 0 5 -1 -1 0 -1 -1 -1 -1 -1 -1 5 3 4 -1 6 4 -1 4 -1 -1 -1 5 0 1 2 2 -1 2 -1 -1 -1 -1 2 -1 -1 -1 -1 -1 -1 -1 -1 -1 -1 -1 -1 -1 2 -1 -1 -1 -1 -1 -1 -1 -1 -1 -1 -1 -1 -1 -1 -1 -1 -1 -1 -1 -1 -1 -1 2 1 0
5 0 3 0 4 3 0 3 0 4 1 1 1 1 1 1 -1 4 3 3 4 1 0 5 -1 -1 0 -1 -1 -1 -1 -1 -1 5 3 4 -1 6 4 -1 4 -1 3 -1 5 0 1 2 2 -1 2 -1 -1 -1 -1 2 -1 -1 -1 -1 -1 -1 -1 -1 -1 -1 -1 -1 -1 2 -1 -1 -1 -1 -1 -1 -1 -1 -1 -1 -1 -1 -1 -1 -1 -1 -1 -1 -1 -1 -1 -1 2 1 0
5 0 3 0 4 3 0 3 0 4 1 1 1 1 1 1 -1 4 3 3 4 1 0 5 -1 -1 0 -1 -1 -1 -1 -1 -1 5 3 4 -1 6 4 -1 4 -1 3 -1 5 0 1 2 2 -1 2 -1 -1 -1 -1 2 2 -1 -1 -1 -1 -1 -1 -1 -1 -1 -1 -1 -1 2 -1 -1 -1 -1 -1 -1 -1 -1 -1 -1 -1 -1 -1 -1 -1 -1 -1 -1 -1 -1 -1 -1 2 1 0
5 0 3 0 4 3 0 3 0 4 1 1 1 1 1 1 -1 4 3 3 4 1 0 5 -1 -1 0 -1 -1 -1 -1 -1 -1 5 3 4 -1 6 4 -1 4 -1 3 -1 5 0 1 2 2 -1 2 -1 2 -1 -1 2 2 -1 -1 -1 -1 -1 -1 -1 -1 -1 -1 -1 -1 2 -1 -1 -1 -1 -1 -1 -1 -1 -1 -1 -1 -1 -1 -1 -1 -1 -1 -1 -1 -1 -1 -1 2 1 0
5 0 3 0 4 3 0 3 0 4 1 1 1 1 1 1 -1 4 3 3 4 1 0 5 -1 -1 0 -1 -1 -1 -1 -1 -1 5 3 4 -1 6 4 -1 4 -1 3 -1 5 0 1 2 2 -1 2 -1 2 -1 -1 2 2 -1 -1 -1 -1 -1 -1 -1 -1 -1 -1 -1 -1 2 -1 -1 -1 2 -1 -1 -1 -1 -1 -1 -1 -1 -1 -1 -1 -1 -1 -1 -1 -1 -1 -1 2 1 0
5 0 3 0 4 3 0 3 0 4 1 1 1 1 1 1 -1 4 3 3 4 1 0 5 -1 -1 0 -1 -1 -1 -1 -1 -1 5 3 4 -1 6 4 -1 4 -1 3 -1 5 0 1 2 2 -1 2 -1 2 -1 -1 2 2 -1 -1 -1 -1 -1 -1 -1 -1 -1 -1 -1 -1 2 -1 -1 -1 2 -1 -1 -1 -1 -1 -1 -1 -1 -1 -1 2 -1 -1 -1 -1 -1 -1 -1 2 1 0
5 0 3 0 4 3 0 3 0 4 1 1 1 1 1 1 -1 4 3 3 4 1 0 5 0 -1 0 -1 -1 -1 -1 -1 -1 5 3 4 -1 6 4 -1 4 -1 3 -1 5 0 1 2 2 -1 2 -1 2 -1 -1 2 2 -1 -1 -1 -1 -1 -1 -1 -1 -1 -1 -1 -1 2 -1 -1 -1 2 -1 -1 -1 -1 -1 -1 -1 -1 -1 -1 2 -1 -1 -1 -1 -1 -1 -1 2 1 0
5 0 3 0 4 3 0 3 0 4 1 1 1 1 1 1 -1 4 3 3 4 1 0 5 0 3 0 -1 -1 -1 -1 -1 -1 5 3 4 -1 6 4 -1 4 -1 3 -1 5 0 1 2 2 -1 2 -1 2 -1 -1 2 2 -1 -1 -1 -1 -1 -1 -1 -1 -1 -1 -1 -1 2 -1 -1 -1 2 -1 -1 -1 -1 -1 -1 -1 -1 -1 -1 2 -1 -1 -1 -1 -1 -1 -1 2 1 0
5 0 3 0 4 3 0 3 0 4 1 1 1 1 1 1 -1 4 3 3 4 1 0 5 0 3 0 4 -1 -1 -1 -1 -1 5 3 4 -1 6 4 -1 4 -1 3 -1 5 0 1 2 2 -1 2 -1 2 -1 -1 2 2 -1 -1 -1 -1 -1 -1 -1 -1 -1 -1 -1 -1 2 -1 -1 -1 2 -1 -1 -1 -1 -1 -1 -1 -1 -1 -1 2 -1 -1 -1 -1 -1 -1 -1 2 1 0
5 0 3 0 4 3 0 3 0 4 1 1 1 1 1 1 -1 4 3 3 4 1 0 5 0 3 0 4 -1 0 -1 -1 -1 5 3 4 -1 6 4 -1 4 -1 3 -1 5 0 1 2 2 -1 2 -1 2 -1 -1 2 2 -1 -1 -1 -1 -1 -1 -1 -1 -1 -1 -1 -1 2 -1 -1 -1 2 -1 -1 -1 -1 -1 -1 -1 -1 -1 -1 2 -1 -1 -1 -1 -1 -1 -1 2 1 0
5 0 3 0 4 3 0 3 0 4 1 1 1 1 1 1 -1 4 3 3 4 1 0 5 0 3 0 4 -1 0 3 -1 -1 5 3 4 -1 6 4 -1 4 -1 3 -1 5 0 1 2 2 -1 2 -1 2 -1 -1 2 2 -1 -1 -1 -1 -1 -1 -1 -1 -1 -1 -1 -1 2 -1 -1 -1 2 -1 -1 -1 -1 -1 -1 -1 -1 -1 -1 2 -1 -1 -1 -1 -1 -1 -1 2 1 0
5 0 3 0 4 3 0 3 0 4 1 1 1 1 1 1 -1 4 3 3 4 1 0 5 0 3 0 4 -1 0 3 0 -1 5 3 4 -1 6 4 -1 4 -1 3 -1 5 0 1 2 2 -1 2 -1 2 -1 -1 2 2 -1 -1 -1 -1 -1 -1 -1 -1 -1 -1 -1 -1 2 -1 -1 -1 2 -1 -1 -1 -1 -1 -1 -1 -1 -1 -1 2 -1 -1 -1 -1 -1 -1 -1 2 1 0
5 0 3 0 4 3 0 3 0 4 1 1 1 1 1 1 -1 4 3 3 4 1 0 5 0 3 0 4 -1 0 3 0 4 5 3 4 -1 6 4 -1 4 -1 3 -1 5 0 1 2 2 -1 2 -1 2 -1 -1 2 2 -1 -1 -1 -1 -1 -1 -1 -1 -1 -1 -1 -1 2 -1 -1 -1 2 -1 -1 -1 -1 -1 -1 -1 -1 -1 -1 2 -1 -1 -1 -1 -1 -1 -1 2 1 0
5 0 3 0 4 3 0 3 0 4 1 1 1 1 1 1 3 4 3 3 4 1 0 5 0 3 0 4 -1 0 3 0 4 5 3 4 -1 6 4 -1 4 -1 3 -1 5 0 1 2 2 -1 2 -1 2 -1 -1 2 2 -1 -1 -1 -1 -1 -1 -1 -1 -1 -1 -1 -1 2 -1 -1 -1 2 -1 -1 -1 -1 -1 -1 -1 -1 -1 -1 2 -1 -1 -1 -1 -1 -1 -1 2 1 0
5 0 3 0 4 3 0 3 0 4 1 1 1 1 1 1 3 4 3 3 4 1 0 5 0 3 0 4 -1 0 3 0 4 5 3 4 3 6 4 -1 4 -1 3 -1 5 0 1 2 2 -1 2 -1 2 -1 -1 2 2 -1 -1 -1 -1 -1 -1 -1 -1 -1 -1 -1 -1 2 -1 -1 -1 2 -1 -1 -1 -1 -1 -1 -1 -1 -1 -1 2 -1 -1 -1 -1 -1 -1 -1 2 1 0
5 0 3 0 4 3 0 3 0 4 1 1 1 1 1 1 3 4 3 3 4 1 0 5 0 3 0 4 -1 0 3 0 4 5 3 4 3 6 4 -1 4 3 3 -1 5 0 1 2 2 -1 2 -1 2 -1 -1 2 2 -1 -1 -1 -1 -1 -1 -1 -1 -1 -1 -1 -1 2 -1 -1 -1 2 -1 -1 -1 -1 -1 -1 -1 -1 -1 -1 2 -1 -1 -1 -1 -1 -1 -1 2 1 0
5 0 3 0 4 3 0 3 0 4 1 1 1 1 1 1 3 4 3 3 4 1 0 5 0 3 0 4 -1 0 3 0 4 5 3 4 3 6 4 -1 4 3 3 4 5 0 1 2 2 -1 2 -1 2 -1 -1 2 2 -1 -1 -1 -1 -1 -1 -1 -1 -1 -1 -1 -1 2 -1 -1 -1 2 -1 -1 -1 -1 -1 -1 -1 -1 -1 -1 2 -1 -1 -1 -1 -1 -1 -1 2 1 0
5 0 3 0 4 3 0 3 0 4 1 1 1 1 1 1 3 4 3 3 4 1 0 5 0 3 0 4 -1 0 3 0 4 5 3 4 3 6 4 -1 4 3 3 4 5 0 1 2 2 -1 2 -1 2 -1 -1 2 2 -1 -1 -1 -1 1 -1 -1 -1 -1 -1 -1 -1 2 -1 -1 -1 2 -1 -1 -1 -1 -1 -1 -1 -1 -1 -1 2 -1 -1 -1 -1 -1 -1 -1 2 1 0
5 0 3 0 4 3 0 3 0 4 1 1 1 1 1 1 3 4 3 3 4 1 0 5 0 3 0 4 -1 0 3 0 4 5 3 4 3 6 4 -1 4 3 3 4 5 0 1 2 2 -1 2 2 2 -1 -1 2 2 -1 -1 -1 -1 1 -1 -1 -1 -1 -1 -1 -1 2 -1 -1 -1 2 -1 -1 -1 -1 -1 -1 -1 -1 -1 -1 2 -1 -1 -1 -1 -1 -1 -1 2 1 0
5 0 3 0 4 3 0 3 0 4 1 1 1 1 1 1 3 4 3 3 4 1 0 5 0 3 0 4 -1 0 3 0 4 5 3 4 3 6 4 -1 4 3 3 4 5 0 1 2 2 -1 2 2 2 2 -1 2 2 -1 -1 -1 -1 1 -1 -1 -1 -1 -1 -1 -1 2 -1 -1 -1 2 -1 -1 -1 -1 -1 -1 -1 -1 -1 -1 2 -1 -1 -1 -1 -1 -1 -1 2 1 0
5 0 3 0 4 3 0 3 0 4 1 1 1 1 1 1 3 4 3 3 4 1 0 5 0 3 0 4 -1 0 3 0 4 5 3 4 3 6 4 -1 4 3 3 4 5 0 1 2 2 -1 2 2 2 2 2 2 2 -1 -1 -1 -1 1 -1 -1 -1 -1 -1 -1 -1 2 -1 -1 -1 2 -1 -1 -1 -1 -1 -1 -1 -1 -1 -1 2 -1 -1 -1 -1 -1 -1 -1 2 1 0
5 0 3 0 4 3 0 3 0 4 1 1 1 1 1 1 3 4 3 3 4 1 0 5 0 3 0 4 -1 0 3 0 4 5 3 4 3 6 4 -1 4 3 3 4 5 0 1 2 2 -1 2 2 2 2 2 2 2 -1 -1 -1 -1 1 -1 -1 2 -1 -1 -1 -1 2 -1 -1 -1 2 -1 -1 -1 -1 -1 -1 -1 -1 -1 -1 2 -1 -1 -1 -1 -1 -1 -1 2 1 0
5 0 3 0 4 3 0 3 0 4 1 1 1 1 1 1 3 4 3 3 4 1 0 5 0 3 0 4 -1 0 3 0 4 5 3 4 3 6 4 -1 4 3 3 4 5 0 1 2 2 -1 2 2 2 2 2 2 2 -1 -1 -1 -1 1 -1 -1 2 2 -1 -1 -1 2 -1 -1 -1 2 -1 -1 -1 -1 -1 -1 -1 -1 -1 -1 2 -1 -1 -1 -1 -1 -1 -1 2 1 0
5 0 3 0 4 3 0 3 0 4 1 1 1 1 1 1 3 4 3 3 4 1 0 5 0 3 0 4 -1 0 3 0 4 5 3 4 3 6 4 -1 4 3 3 4 5 0 1 2 2 -1 2 2 2 2 2 2 2 -1 -1 -1 -1 1 -1 -1 2 2 2 -1 -1 2 -1 -1 -1 2 -1 -1 -1 -1 -1 -1 -1 -1 -1 -1 2 -1 -1 -1 -1 -1 -1 -1 2 1 0
5 0 3 0 4 3 0 3 0 4 1 1 1 1 1 1 3 4 3 3 4 1 0 5 0 3 0 4 -1 0 3 0 4 5 3 4 3 6 4 -1 4 3 3 4 5 0 1 2 2 -1 2 2 2 2 2 2 2 -1 -1 -1 -1 1 -1 -1 2 2 2 2 -1 2 -1 -1 -1 2 -1 -1 -1 -1 -1 -1 -1 -1 -1 -1 2 -1 -1 -1 -1 -1 -1 -1 2 1 0
5 0 3 0 4 3 0 3 0 4 1 1 1 1 1 1 3 4 3 3 4 1 0 5 0 3 0 4 -1 0 3 0 4 5 3 4 3 6 4 -1 4 3 3 4 5 0 1 2 2 -1 2 2 2 2 2 2 2 -1 -1 -1 -1 1 -1 -1 2 2 2 2 -1 2 2 -1 -1 2 -1 -1 -1 -1 -1 -1 -1 -1 -1 -1 2 -1 -1 -1 -1 -1 -1 -1 2 1 0
5 0 3 0 4 3 0 3 0 4 1 1 1 1 1 1 3 4 3 3 4 1 0 5 0 3 0 4 -1 0 3 0 4 5 3 4 3 6 4 -1 4 3 3 4 5 0 1 2 2 -1 2 2 2 2 2 2 2 -1 -1 -1 -1 1 -1 -1 2 2 2 2 -1 2 2 2 -1 2 -1 -1 -1 -1 -1 -1 -1 -1 -1 -1 2 -1 -1 -1 -1 -1 -1 -1 2 1 0
5 0 3 0 4 3 0 3 0 4 1 1 1 1 1 1 3 4 3 3 4 1 0 5 0 3 0 4 -1 0 3 0 4 5 3 4 3 6 4 -1 4 3 3 4 5 0 1 2 2 -1 2 2 2 2 2 2 2 -1 -1 -1 -1 1 -1 -1 2 2 2 2 -1 2 2 2 -1 2 -1 -1 2 -1 -1 -1 -1 -1 -1 -1 2 -1 -1 -1 -1 -1 -1 -1 2 1 0
5 0 3 0 4 3 0 3 0 4 1 1 1 1 1 1 3 4 3 3 4 1 0 5 0 3 0 4 -1 0 3 0 4 5 3 4 3 6 4 -1 4 3 3 4 5 0 1 2 2 -1 2 2 2 2 2 2 2 -1 -1 -1 -1 1 -1 -1 2 2 2 2 -1 2 2 2 -1 2 -1 -1 2 -1 2 -1 -1 -1 -1 -1 2 -1 -1 -1 -1 -1 -1 -1 2 1 0
5 0 3 0 4 3 0 3 0 4 1 1 1 1 1 1 3 4 3 3 4 1 0 5 0 3 0 4 -1 0 3 0 4 5 3 4 3 6 4 -1 4 3 3 4 5 0 1 2 2 -1 2 2 2 2 2 2 2 -1 -1 -1 -1 1 -1 -1 2 2 2 2 -1 2 2 2 -1 2 -1 -1 2 -1 2 -1 2 -1 -1 -1 2 -1 -1 -1 -1 -1 -1 -1 2 1 0
5 0 3 0 4 3 0 3 0 4 1 1 1 1 1 1 3 4 3 3 4 1 0 5 0 3 0 4 -1 0 3 0 4 5 3 4 3 6 4 -1 4 3 3 4 5 0 1 2 2 -1 2 2 2 2 2 2 2 -1 -1 -1 -1 1 -1 -1 2 2 2 2 -1 2 2 2 -1 2 -1 -1 2 -1 2 -1 2 -1 2 -1 2 -1 -1 -1 -1 -1 -1 -1 2 1 0
5 0 3 0 4 3 0 3 0 4 1 1 1 1 1 1 3 4 3 3 4 1 0 5 0 3 0 4 -1 0 3 0 4 5 3 4 3 6 4 -1 4 3 3 4 5 0 1 2 2 -1 2 2 2 2 2 2 2 -1 -1 -1 -1 1 -1 -1 2 2 2 2 -1 2 2 2 -1 2 -1 -1 2 -1 2 -1 2 -1 2 -1 2 -1 -1 2 -1 -1 -1 -1 2 1 0
5 0 3 0 4 3 0 3 0 4 1 1 1 1 1 1 3 4 3 3 4 1 0 5 0 3 0 4 -1 0 3 0 4 5 3 4 3 6 4 -1 4 3 3 4 5 0 1 2 2 -1 2 2 2 2 2 2 2 -1 -1 -1 -1 1 -1 -1 2 2 2 2 -1 2 2 2 -1 2 -1 -1 2 -1 2 -1 2 -1 2 -1 2 -1 -1 2 -1 2 -1 -1 2 1 0
5 0 3 0 4 3 0 3 0 4 1 1 1 1 1 1 3 4 3 3 4 1 0 5 0 3 0 4 -1 0 3 0 4 5 3 4 3 6 4 -1 4 3 3 4 5 0 1 2 2 -1 2 2 2 2 2 2 2 -1 -1 -1 -1 1 -1 -1 2 2 2 2 -1 2 2 2 -1 2 -1 -1 2 -1 2 -1 2 -1 2 -1 2 -1 -1 2 -1 2 -1 2 2 1 0
5 0 3 0 4 3 0 3 0 4 1 1 1 1 1 1 3 4 3 3 4 1 0 5 0 3 0 4 3 0 3 0 4 5 3 4 3 6 4 -1 4 3 3 4 5 0 1 2 2 -1 2 2 2 2 2 2 2 -1 -1 -1 -1 1 -1 -1 2 2 2 2 -1 2 2 2 -1 2 -1 -1 2 -1 2 -1 2 -1 2 -1 2 -1 -1 2 -1 2 -1 2 2 1 0
5 0 3 0 4 3 0 3 0 4 1 1 1 1 1 1 3 4 3 3 4 1 0 5 0 3 0 4 3 0 3 0 4 5 3 4 3 6 4 3 4 3 3 4 5 0 1 2 2 -1 2 2 2 2 2 2 2 -1 -1 -1 -1 1 -1 -1 2 2 2 2 -1 2 2 2 -1 2 -1 -1 2 -1 2 -1 2 -1 2 -1 2 -1 -1 2 -1 2 -1 2 2 1 0
5 0 3 0 4 3 0 3 0 4 1 1 1 1 1 1 3 4 3 3 4 1 0 5 0 3 0 4 3 0 3 0 4 5 3 4 3 6 4 3 4 3 3 4 5 0 1 2 2 2 2 2 2 2 2 2 2 -1 -1 -1 -1 1 -1 -1 2 2 2 2 -1 2 2 2 -1 2 -1 -1 2 -1 2 -1 2 -1 2 -1 2 -1 -1 2 -1 2 -1 2 2 1 0
5 0 3 0 4 3 0 3 0 4 1 1 1 1 1 1 3 4 3 3 4 1 0 5 0 3 0 4 3 0 3 0 4 5 3 4 3 6 4 3 4 3 3 4 5 0 1 2 2 2 2 2 2 2 2 2 2 1 -1 -1 -1 1 -1 -1 2 2 2 2 -1 2 2 2 -1 2 -1 -1 2 -1 2 -1 2 -1 2 -1 2 -1 -1 2 -1 2 -1 2 2 1 0
5 0 3 0 4 3 0 3 0 4 1 1 1 1 1 1 3 4 3 3 4 1 0 5 0 3 0 4 3 0 3 0 4 5 3 4 3 6 4 3 4 3 3 4 5 0 1 2 2 2 2 2 2 2 2 2 2 1 -1 1 -1 1 -1 -1 2 2 2 2 -1 2 2 2 -1 2 -1 -1 2 -1 2 -1 2 -1 2 -1 2 -1 -1 2 -1 2 -1 2 2 1 0
5 0 3 0 4 3 0 3 0 4 1 1 1 1 1 1 3 4 3 3 4 1 0 5 0 3 0 4 3 0 3 0 4 5 3 4 3 6 4 3 4 3 3 4 5 0 1 2 2 2 2 2 2 2 2 2 2 1 -1 1 -1 1 -1 2 2 2 2 2 -1 2 2 2 -1 2 -1 -1 2 -1 2 -1 2 -1 2 -1 2 -1 -1 2 -1 2 -1 2 2 1 0
5 0 3 0 4 3 0 3 0 4 1 1 1 1 1 1 3 4 3 3 4 1 0 5 0 3 0 4 3 0 3 0 4 5 3 4 3 6 4 3 4 3 3 4 5 0 1 2 2 2 2 2 2 2 2 2 2 1 -1 1 -1 1 -1 2 2 2 2 2 1 2 2 2 -1 2 -1 -1 2 -1 2 -1 2 -1 2 -1 2 -1 -1 2 -1 2 -1 2 2 1 0
5 0 3 0 4 3 0 3 0 4 1 1 1 1 1 1 3 4 3 3 4 1 0 5 0 3 0 4 3 0 3 0 4 5 3 4 3 6 4 3 4 3 3 4 5 0 1 2 2 2 2 2 2 2 2 2 2 1 -1 1 -1 1 -1 2 2 2 2 2 1 2 2 2 2 2 -1 -1 2 -1 2 -1 2 -1 2 -1 2 -1 -1 2 -1 2 -1 2 2 1 0
5 0 3 0 4 3 0 3 0 4 1 1 1 1 1 1 3 4 3 3 4 1 0 5 0 3 0 4 3 0 3 0 4 5 3 4 3 6 4 3 4 3 3 4 5 0 1 2 2 2 2 2 2 2 2 2 2 1 -1 1 -1 1 -1 2 2 2 2 2 1 2 2 2 2 2 2 -1 2 -1 2 -1 2 -1 2 -1 2 -1 -1 2 -1 2 -1 2 2 1 0
5 0 3 0 4 3 0 3 0 4 1 1 1 1 1 1 3 4 3 3 4 1 0 5 0 3 0 4 3 0 3 0 4 5 3 4 3 6 4 3 4 3 3 4 5 0 1 2 2 2 2 2 2 2 2 2 2 1 -1 1 -1 1 -1 2 2 2 2 2 1 2 2 2 2 2 2 -1 2 2 2 -1 2 -1 2 -1 2 -1 -1 2 -1 2 -1 2 2 1 0
5 0 3 0 4 3 0 3 0 4 1 1 1 1 1 1 3 4 3 3 4 1 0 5 0 3 0 4 3 0 3 0 4 5 3 4 3 6 4 3 4 3 3 4 5 0 1 2 2 2 2 2 2 2 2 2 2 1 -1 1 -1 1 -1 2 2 2 2 2 1 2 2 2 2 2 2 -1 2 2 2 2 2 -1 2 -1 2 -1 -1 2 -1 2 -1 2 2 1 0
5 0 3 0 4 3 0 3 0 4 1 1 1 1 1 1 3 4 3 3 4 1 0 5 0 3 0 4 3 0 3 0 4 5 3 4 3 6 4 3 4 3 3 4 5 0 1 2 2 2 2 2 2 2 2 2 2 1 -1 1 -1 1 -1 2 2 2 2 2 1 2 2 2 2 2 2 -1 2 2 2 2 2 -1 2 2 2 -1 -1 2 -1 2 -1 2 2 1 0
5 0 3 0 4 3 0 3 0 4 1 1 1 1 1 1 3 4 3 3 4 1 0 5 0 3 0 4 3 0 3 0 4 5 3 4 3 6 4 3 4 3 3 4 5 0 1 2 2 2 2 2 2 2 2 2 2 1 -1 1 -1 1 -1 2 2 2 2 2 1 2 2 2 2 2 2 -1 2 2 2 2 2 -1 2 2 2 2 -1 2 -1 2 -1 2 2 1 0
5 0 3 0 4 3 0 3 0 4 1 1 1 1 1 1 3 4 3 3 4 1 0 5 0 3 0 4 3 0 3 0 4 5 3 4 3 6 4 3 4 3 3 4 5 0 1 2 2 2 2 2 2 2 2 2 2 1 -1 1 -1 1 -1 2 2 2 2 2 1 2 2 2 2 2 2 -1 2 2 2 2 2 -1 2 2 2 2 -1 2 2 2 -1 2 2 1 0
5 0 3 0 4 3 0 3 0 4 1 1 1 1 1 1 3 4 3 3 4 1 0 5 0 3 0 4 3 0 3 0 4 5 3 4 3 6 4 3 4 3 3 4 5 0 1 2 2 2 2 2 2 2 2 2 2 1 -1 1 -1 1 -1 2 2 2 2 2 1 2 2 2 2 2 2 -1 2 2 2 2 2 -1 2 2 2 2 -1 2 2 2 2 2 2 1 0
5 0 3 0 4 3 0 3 0 4 1 1 1 1 1 1 3 4 3 3 4 1 0 5 0 3 0 4 3 0 3 0 4 5 3 4 3 6 4 3 4 3 3 4 5 0 1 2 2 2 2 2 2 2 2 2 2 1 -1 1 1 1 -1 2 2 2 2 2 1 2 2 2 2 2 2 -1 2 2 2 2 2 -1 2 2 2 2 -1 2 2 2 2 2 2 1 0
5 0 3 0 4 3 0 3 0 4 1 1 1 1 1 1 3 4 3 3 4 1 0 5 0 3 0 4 3 0 3 0 4 5 3 4 3 6 4 3 4 3 3 4 5 0 1 2 2 2 2 2 2 2 2 2 2 1 -1 1 1 1 1 2 2 2 2 2 1 2 2 2 2 2 2 -1 2 2 2 2 2 -1 2 2 2 2 -1 2 2 2 2 2 2 1 0
5 0 3 0 4 3 0 3 0 4 1 1 1 1 1 1 3 4 3 3 4 1 0 5 0 3 0 4 3 0 3 0 4 5 3 4 3 6 4 3 4 3 3 4 5 0 1 2 2 2 2 2 2 2 2 2 2 1 -1 1 1 1 1 2 2 2 2 2 1 2 2 2 2 2 2 2 2 2 2 2 2 -1 2 2 2 2 -1 2 2 2 2 2 2 1 0
5 0 3 0 4 3 0 3 0 4 1 1 1 1 1 1 3 4 3 3 4 1 0 5 0 3 0 4 3 0 3 0 4 5 3 4 3 6 4 3 4 3 3 4 5 0 1 2 2 2 2 2 2 2 2 2 2 1 -1 1 1 1 1 2 2 2 2 2 1 2 2 2 2 2 2 2 2 2 2 2 2 2 2 2 2 2 -1 2 2 2 2 2 2 1 0
5 0 3 0 4 3 0 3 0 4 1 1 1 1 1 1 3 4 3 3 4 1 0 5 0 3 0 4 3 0 3 0 4 5 3 4 3 6 4 3 4 3 3 4 5 0 1 2 2 2 2 2 2 2 2 2 2 1 -1 1 1 1 1 2 2 2 2 2 1 2 2 2 2 2 2 2 2 2 2 2 2 2 2 2 2 2 2 2 2 2 2 2 2 1 0
5 0 3 0 4 3 0 3 0 4 1 1 1 1 1 1 3 4 3 3 4 1 0 5 0 3 0 4 3 0 3 0 4 5 3 4 3 6 4 3 4 3 3 4 5 0 1 2 2 2 2 2 2 2 2 2 2 1 1 1 1 1 1 2 2 2 2 2 1 2 2 2 2 2 2 2 2 2 2 2 2 2 2 2 2 2 2 2 2 2 2 2 2 1 0
